<?xml version = "1.0" standalone="yes"?>
<!-- This file has been generated by DOcplex version 2.23.222  -->
<CPLEXSolution version="1.0">
 <header
   problemName="CVRP"
   objectiveValue="15932.9"
  />
 <variables>
  <variable name="x_0_1" index="0" value="1.00000"/>
  <variable name="x_0_2" index="1" value="1.00000"/>
  <variable name="x_0_3" index="2" value="1.00000"/>
  <variable name="x_0_4" index="3" value="1.00000"/>
  <variable name="x_0_7" index="6" value="1.00000"/>
  <variable name="x_0_8" index="7" value="1.00000"/>
  <variable name="x_0_10" index="9" value="1.00000"/>
  <variable name="x_0_12" index="11" value="1.00000"/>
  <variable name="x_0_14" index="13" value="1.00000"/>
  <variable name="x_0_15" index="14" value="1.00000"/>
  <variable name="x_0_16" index="15" value="1.00000"/>
  <variable name="x_0_17" index="16" value="1.00000"/>
  <variable name="x_0_22" index="21" value="1.00000"/>
  <variable name="x_0_23" index="22" value="1.00000"/>
  <variable name="x_0_24" index="23" value="1.00000"/>
  <variable name="x_0_25" index="24" value="1.00000"/>
  <variable name="x_0_26" index="25" value="1.00000"/>
  <variable name="x_0_28" index="27" value="1.00000"/>
  <variable name="x_1_0" index="29" value="1.00000"/>
  <variable name="x_2_0" index="58" value="1.00000"/>
  <variable name="x_3_0" index="87" value="1.00000"/>
  <variable name="x_4_21" index="136" value="1.00000"/>
  <variable name="x_5_0" index="145" value="1.00000"/>
  <variable name="x_6_0" index="174" value="1.00000"/>
  <variable name="x_7_0" index="203" value="1.00000"/>
  <variable name="x_8_11" index="242" value="1.00000"/>
  <variable name="x_9_0" index="261" value="1.00000"/>
  <variable name="x_10_0" index="290" value="1.00000"/>
  <variable name="x_11_0" index="319" value="1.00000"/>
  <variable name="x_12_19" index="366" value="1.00000"/>
  <variable name="x_13_0" index="377" value="1.00000"/>
  <variable name="x_14_0" index="406" value="1.00000"/>
  <variable name="x_15_29" index="463" value="1.00000"/>
  <variable name="x_16_0" index="464" value="1.00000"/>
  <variable name="x_17_18" index="510" value="1.00000"/>
  <variable name="x_18_0" index="522" value="1.00000"/>
  <variable name="x_19_9" index="560" value="1.00000"/>
  <variable name="x_20_6" index="586" value="1.00000"/>
  <variable name="x_21_20" index="629" value="1.00000"/>
  <variable name="x_22_27" index="664" value="1.00000"/>
  <variable name="x_23_0" index="667" value="1.00000"/>
  <variable name="x_24_5" index="701" value="1.00000"/>
  <variable name="x_25_0" index="725" value="1.00000"/>
  <variable name="x_26_0" index="754" value="1.00000"/>
  <variable name="x_27_0" index="783" value="1.00000"/>
  <variable name="x_28_13" index="825" value="1.00000"/>
  <variable name="x_29_0" index="841" value="1.00000"/>
  <variable name="u_1" index="870" value="63.00000"/>
  <variable name="u_2" index="871" value="66.00000"/>
  <variable name="u_3" index="872" value="54.00000"/>
  <variable name="u_4" index="873" value="7.00000"/>
  <variable name="u_5" index="874" value="51.00000"/>
  <variable name="u_6" index="875" value="66.00000"/>
  <variable name="u_7" index="876" value="66.00000"/>
  <variable name="u_8" index="877" value="45.00000"/>
  <variable name="u_9" index="878" value="65.00000"/>
  <variable name="u_10" index="879" value="45.00000"/>
  <variable name="u_11" index="880" value="66.00000"/>
  <variable name="u_12" index="881" value="18.00000"/>
  <variable name="u_13" index="882" value="65.00000"/>
  <variable name="u_14" index="883" value="57.00000"/>
  <variable name="u_15" index="884" value="41.00000"/>
  <variable name="u_16" index="885" value="51.00000"/>
  <variable name="u_17" index="886" value="29.00000"/>
  <variable name="u_18" index="887" value="65.00000"/>
  <variable name="u_19" index="888" value="30.00000"/>
  <variable name="u_20" index="889" value="60.00000"/>
  <variable name="u_21" index="890" value="57.00000"/>
  <variable name="u_22" index="891" value="20.00000"/>
  <variable name="u_23" index="892" value="56.00000"/>
  <variable name="u_24" index="893" value="39.00000"/>
  <variable name="u_25" index="894" value="40.00000"/>
  <variable name="u_26" index="895" value="66.00000"/>
  <variable name="u_27" index="896" value="62.00000"/>
  <variable name="u_28" index="897" value="16.00000"/>
  <variable name="u_29" index="898" value="66.00000"/>
 </variables>
</CPLEXSolution>
